\ENCODING=ISO-8859-1
\Problem name: ilog.cplex

Minimize
 obj1: 101988 x1 + 101565 x2 + 98938 x3 + 99737 x4 + 98813 x5 + 96543 x6
       + 93121 x7 + 93210 x8 + 103789 x9 + 103232 x10 + 102566 x11 + 96879 x12
       + 93756 x13 + 102296 x14 + 104977 x15 + 106604 x16 + 90630 x17
       + 96893 x18 + 103181 x19 + 91748 x20 + 104092 x21 + 104408 x22
       + 95593 x23 + 97255 x24 + 98089 x25 + 90017 x26 + 97614 x27 + 99913 x28
       + 90726 x29 + 107615 x30 + 98034 x31 + 107944 x32 + 94961 x33
       + 96018 x34 + 92596 x35 + 108261 x36 + 90987 x37 + 91354 x38 + 90717 x39
       + 101504 x40 + 90260 x41 + 100129 x42 + 100709 x43 + 101422 x44
       + 105820 x45 + 91747 x46 + 103866 x47 + 92196 x48 + 103916 x49
       + 94076 x50 + 108468 x51 + 94985 x52 + 97887 x53 + 91174 x54 + 90954 x55
       + 93283 x56 + 96824 x57 + 108385 x58 + 103484 x59 + 105579 x60
       + 93390 x61 + 100996 x62 + 96137 x63 + 92663 x64 + 92898 x65
       + 108463 x66 + 94123 x67 + 101214 x68 + 99215 x69 + 95472 x70
       + 107010 x71 + 108395 x72 + 93752 x73 + 95415 x74 + 107657 x75
       + 104340 x76 + 107185 x77 + 98737 x78 + 95443 x79 + 104684 x80
       + 93218 x81 + 90226 x82 + 103767 x83 + 100314 x84 + 91620 x85
       + 93315 x86 + 91723 x87 + 90181 x88 + 102962 x89 + 91310 x90 + 98302 x91
       + 106529 x92 + 101994 x93 + 103258 x94 + 109860 x95 + 90053 x96
       + 101831 x97 + 105649 x98 + 94548 x99 + 96255 x100 + 106864 x101
       + 90227 x102 + 91041 x103 + 93669 x104 + 98773 x105 + 92874 x106
       + 103117 x107 + 109644 x108 + 107055 x109 + 98880 x110 + 106525 x111
       + 90026 x112 + 103167 x113 + 105876 x114 + 100044 x115 + 105328 x116
       + 105662 x117 + 107252 x118 + 108776 x119 + 97897 x120 + 102092 x121
       + 107467 x122 + 102838 x123 + 104695 x124 + 102631 x125 + 93528 x126
       + 97009 x127 + 101933 x128 + 105048 x129 + 105334 x130 + 90098 x131
       + 109741 x132 + 96571 x133 + 93782 x134 + 103086 x135 + 105523 x136
       + 95783 x137 + 96170 x138 + 100053 x139 + 106808 x140 + 105041 x141
       + 93876 x142 + 108969 x143 + 109667 x144 + 90921 x145 + 94018 x146
       + 97711 x147 + 98654 x148 + 104848 x149 + 105307 x150 + 95530 x151
       + 99450 x152 + 98561 x153 + 92881 x154 + 107997 x155 + 107736 x156
       + 107266 x157 + 92068 x158 + 96935 x159 + 100837 x160 + 107034 x161
       + 96828 x162 + 105915 x163 + 102252 x164 + 102442 x165 + 95059 x166
       + 106612 x167 + 103463 x168 + 105453 x169 + 99985 x170 + 101626 x171
       + 92250 x172 + 107182 x173 + 104544 x174 + 105367 x175 + 92252 x176
       + 100473 x177 + 103972 x178 + 96147 x179 + 104599 x180 + 99211 x181
       + 98758 x182 + 105376 x183 + 108397 x184 + 90682 x185 + 96883 x186
       + 107475 x187 + 104601 x188 + 91715 x189 + 109570 x190 + 90823 x191
       + 99255 x192 + 105608 x193 + 100220 x194 + 109439 x195 + 105794 x196
       + 98616 x197 + 106958 x198 + 102252 x199 + 103365 x200 + 102798 x201
       + 90359 x202 + 107356 x203 + 90025 x204 + 100506 x205 + 95985 x206
       + 99937 x207 + 104381 x208 + 92756 x209 + 99232 x210 + 91912 x211
       + 106202 x212 + 95456 x213 + 92456 x214 + 95866 x215 + 94347 x216
       + 99861 x217 + 102511 x218 + 101054 x219 + 93833 x220 + 96566 x221
       + 90600 x222 + 95032 x223 + 102927 x224 + 96007 x225 + 105741 x226
       + 90901 x227 + 95873 x228 + 102648 x229 + 98145 x230 + 107226 x231
       + 107178 x232 + 94912 x233 + 109484 x234 + 95316 x235 + 99355 x236
       + 108380 x237 + 103261 x238 + 96912 x239 + 97585 x240 + 101994 x241
       + 105241 x242 + 102804 x243 + 103750 x244 + 101036 x245 + 91243 x246
       + 100336 x247 + 95717 x248 + 107969 x249 + 109575 x250 + 106331 x251
       + 91355 x252 + 106463 x253 + 95075 x254 + 90044 x255 + 102149 x256
       + 101098 x257 + 99103 x258 + 95323 x259 + 106873 x260 + 103847 x261
       + 99080 x262 + 90029 x263 + 95077 x264 + 108588 x265 + 104207 x266
       + 102083 x267 + 98940 x268 + 92274 x269 + 102408 x270 + 104937 x271
       + 99353 x272 + 93588 x273 + 105321 x274 + 97754 x275 + 106612 x276
       + 97772 x277 + 90466 x278 + 103753 x279 + 91317 x280 + 99725 x281
       + 92760 x282 + 103913 x283 + 96842 x284 + 106609 x285 + 101143 x286
       + 92668 x287 + 101190 x288 + 95844 x289 + 90298 x290 + 107192 x291
       + 93077 x292 + 104767 x293 + 102343 x294 + 102573 x295 + 104776 x296
       + 94139 x297 + 108847 x298 + 101386 x299 + 102565 x300 + 94514 x301
       + 99901 x302 + 101550 x303 + 106485 x304 + 94937 x305 + 102223 x306
       + 97849 x307 + 100411 x308 + 104981 x309 + 96056 x310 + 96613 x311
       + 99109 x312 + 109645 x313 + 102806 x314 + 105511 x315 + 99953 x316
       + 92921 x317 + 90720 x318 + 109219 x319 + 93768 x320 + 94845 x321
       + 98686 x322 + 95807 x323 + 102351 x324 + 96866 x325 + 100968 x326
       + 98838 x327 + 99431 x328 + 105288 x329 + 101801 x330 + 103056 x331
       + 93176 x332 + 106445 x333 + 91016 x334 + 103271 x335 + 100831 x336
       + 91808 x337 + 99653 x338 + 98419 x339 + 94271 x340 + 96444 x341
       + 108017 x342 + 105748 x343 + 98974 x344 + 99978 x345 + 97683 x346
       + 93718 x347 + 108342 x348 + 105708 x349 + 103686 x350 + 96415 x351
       + 90308 x352 + 100517 x353 + 93445 x354 + 107170 x355 + 93809 x356
       + 105943 x357 + 94945 x358 + 94531 x359 + 108987 x360 + 96855 x361
       + 90527 x362 + 101798 x363 + 102712 x364 + 101704 x365 + 97624 x366
       + 107161 x367 + 96924 x368 + 92652 x369 + 98377 x370 + 105633 x371
       + 109545 x372 + 109533 x373 + 106075 x374 + 102548 x375 + 91815 x376
       + 92684 x377 + 92969 x378 + 96166 x379 + 101894 x380 + 96237 x381
       + 104973 x382 + 102709 x383 + 98237 x384 + 100153 x385 + 101585 x386
       + 100213 x387 + 93242 x388 + 107501 x389 + 108565 x390 + 90468 x391
       + 97827 x392 + 100397 x393 + 104861 x394 + 90506 x395 + 99382 x396
       + 90523 x397 + 99795 x398 + 102917 x399 + 97857 x400 + 98283 x401
       + 91719 x402 + 97757 x403 + 97790 x404 + 108450 x405 + 95142 x406
       + 107868 x407 + 97631 x408 + 99527 x409 + 99757 x410 + 94160 x411
       + 92013 x412 + 109075 x413 + 101837 x414 + 97716 x415 + 107442 x416
       + 97900 x417 + 106180 x418 + 101550 x419 + 107393 x420 + 108900 x421
       + 95255 x422 + 99348 x423 + 102409 x424 + 109462 x425 + 105639 x426
       + 107461 x427 + 100406 x428 + 90471 x429 + 106355 x430 + 106014 x431
       + 96934 x432 + 101326 x433 + 102712 x434 + 109321 x435 + 98766 x436
       + 97043 x437 + 105429 x438 + 94339 x439 + 94357 x440 + 101377 x441
       + 103358 x442 + 100686 x443 + 104004 x444 + 97364 x445 + 96426 x446
       + 97757 x447 + 91735 x448 + 107659 x449 + 100649 x450 + 104305 x451
       + 108493 x452 + 98166 x453 + 93912 x454 + 109768 x455 + 98397 x456
       + 100206 x457 + 103758 x458 + 91190 x459 + 107660 x460 + 98803 x461
       + 106571 x462 + 104737 x463 + 109266 x464 + 97695 x465 + 91297 x466
       + 96639 x467 + 95503 x468 + 105248 x469 + 100251 x470 + 104782 x471
       + 95250 x472 + 109734 x473 + 94568 x474 + 109257 x475 + 103159 x476
       + 107253 x477 + 102521 x478 + 97823 x479 + 103908 x480 + 96219 x481
       + 107518 x482 + 95682 x483 + 96868 x484 + 108592 x485 + 109326 x486
       + 106369 x487 + 107689 x488 + 91500 x489 + 96692 x490 + 90194 x491
       + 95631 x492 + 109273 x493 + 101781 x494 + 92857 x495 + 106973 x496
       + 98971 x497 + 93031 x498 + 95460 x499 + 100533 x500 + 93248 x501
       + 103864 x502 + 108060 x503 + 100655 x504 + 99548 x505 + 90542 x506
       + 109938 x507 + 104188 x508 + 108937 x509 + 94351 x510 + 93741 x511
       + 104613 x512 + 94439 x513 + 104449 x514 + 97514 x515 + 90440 x516
       + 90969 x517 + 109396 x518 + 91171 x519 + 109511 x520 + 106772 x521
       + 107798 x522 + 102104 x523 + 106036 x524 + 99759 x525 + 101456 x526
       + 98387 x527 + 93003 x528 + 101177 x529 + 98031 x530 + 97433 x531
       + 98999 x532 + 103789 x533 + 104480 x534 + 92983 x535 + 105558 x536
       + 92056 x537 + 97370 x538 + 93944 x539 + 108804 x540 + 97488 x541
       + 96215 x542 + 95817 x543 + 109785 x544 + 98405 x545 + 94959 x546
       + 97240 x547 + 108496 x548 + 99761 x549 + 90588 x550 + 90620 x551
       + 97842 x552 + 103221 x553 + 96674 x554 + 98224 x555 + 108907 x556
       + 96168 x557 + 100735 x558 + 101019 x559 + 105753 x560 + 97134 x561
       + 107455 x562 + 98118 x563 + 101209 x564 + 109424 x565 + 90829 x566
       + 102104 x567 + 90869 x568 + 100592 x569 + 108836 x570 + 98229 x571
       + 107778 x572 + 108794 x573 + 90832 x574 + 106618 x575 + 97110 x576
       + 100893 x577 + 90071 x578 + 108331 x579 + 102737 x580 + 91805 x581
       + 101561 x582 + 108520 x583 + 105667 x584 + 99719 x585 + 98975 x586
       + 92867 x587 + 98133 x588 + 97624 x589 + 103350 x590 + 107158 x591
       + 96513 x592 + 108016 x593 + 101083 x594 + 94034 x595 + 91257 x596
       + 94700 x597 + 99010 x598 + 95855 x599 + 100349 x600 + 41032 x601
       + 42154 x602 + 39906 x603 + 41218 x604 + 40092 x605 + 42449 x606
       + 38845 x607 + 41278 x608 + 37573 x609 + 38704 x610 + 43076 x611
       + 43741 x612 + 43694 x613 + 37746 x614 + 40971 x615 + 37839 x616
       + 42352 x617 + 43045 x618 + 41729 x619 + 41454 x620 + 41381 x621
       + 40526 x622 + 38337 x623 + 37986 x624 + 38231 x625 + 39271 x626
       + 42465 x627 + 40264 x628 + 42360 x629 + 37526 x630 + 41980 x631
       + 42237 x632 + 36602 x633 + 37787 x634 + 38061 x635 + 42956 x636
       + 41423 x637 + 38890 x638 + 42007 x639 + 41866 x640 + 36478 x641
       + 39909 x642 + 43609 x643 + 37689 x644 + 41033 x645 + 36290 x646
       + 39553 x647 + 39157 x648 + 38786 x649 + 37042 x650 + 39636 x651
       + 42666 x652 + 37295 x653 + 42934 x654 + 38640 x655 + 41373 x656
       + 41709 x657 + 43529 x658 + 36541 x659 + 25077 x660
Subject To
 c1:   x4 - x33 - x38 + x39 + x40 - x41 - x51  = 0
 c2:   x64 - x93 - x98 + x99 + x100 - x101 - x111  = 0
 c3:   x124 - x153 - x158 + x159 + x160 - x161 - x171  = 0
 c4:   x184 - x213 - x218 + x219 + x220 - x221 - x231  = 1
 c5:   x244 - x273 - x278 + x279 + x280 - x281 - x291  = 0
 c6:   x304 - x333 - x338 + x339 + x340 - x341 - x351  = 0
 c7:   x364 - x393 - x398 + x399 + x400 - x401 - x411  = 0
 c8:   x424 - x453 - x458 + x459 + x460 - x461 - x471  = 0
 c9:   x484 - x513 - x518 + x519 + x520 - x521 - x531  = 0
 c10:  x544 - x573 - x578 + x579 + x580 - x581 - x591  = 0
 c11:  - x9 - x21 - x31 + x46  = -1
 c12:  - x69 - x81 - x91 + x106  = 0
 c13:  - x129 - x141 - x151 + x166  = 0
 c14:  - x189 - x201 - x211 + x226  = 0
 c15:  - x249 - x261 - x271 + x286  = 0
 c16:  - x309 - x321 - x331 + x346  = 0
 c17:  - x369 - x381 - x391 + x406  = 0
 c18:  - x429 - x441 - x451 + x466  = 0
 c19:  - x489 - x501 - x511 + x526  = 0
 c20:  - x549 - x561 - x571 + x586  = 1
 c21:  x8 + x20 - x30 + x42 - x52  = 0
 c22:  x68 + x80 - x90 + x102 - x112  = 0
 c23:  x128 + x140 - x150 + x162 - x172  = 0
 c24:  x188 + x200 - x210 + x222 - x232  = 0
 c25:  x248 + x260 - x270 + x282 - x292  = 0
 c26:  x308 + x320 - x330 + x342 - x352  = 0
 c27:  x368 + x380 - x390 + x402 - x412  = 0
 c28:  x428 + x440 - x450 + x462 - x472  = 0
 c29:  x488 + x500 - x510 + x522 - x532  = 0
 c30:  x548 + x560 - x570 + x582 - x592  = 0
 c31:  x1 - x22 - x24 + x33 + x44 + x56 - x60  = 0
 c32:  x61 - x82 - x84 + x93 + x104 + x116 - x120  = -1
 c33:  x121 - x142 - x144 + x153 + x164 + x176 - x180  = -1
 c34:  x181 - x202 - x204 + x213 + x224 + x236 - x240  = 0
 c35:  x241 - x262 - x264 + x273 + x284 + x296 - x300  = 0
 c36:  x301 - x322 - x324 + x333 + x344 + x356 - x360  = 0
 c37:  x361 - x382 - x384 + x393 + x404 + x416 - x420  = 0
 c38:  x421 - x442 - x444 + x453 + x464 + x476 - x480  = 1
 c39:  x481 - x502 - x504 + x513 + x524 + x536 - x540  = 1
 c40:  x541 - x562 - x564 + x573 + x584 + x596 - x600  = 0
 c41:  x2 + x5 + x12 - x14 - x20 - x26 + x36 - x39 - x56 + x58 + x60  = 0
 c42:  x62 + x65 + x72 - x74 - x80 - x86 + x96 - x99 - x116 + x118 + x120  = 0
 c43:  x122 + x125 + x132 - x134 - x140 - x146 + x156 - x159 - x176 + x178
       + x180  = 0
 c44:  x182 + x185 + x192 - x194 - x200 - x206 + x216 - x219 - x236 + x238
       + x240  = 0
 c45:  x242 + x245 + x252 - x254 - x260 - x266 + x276 - x279 - x296 + x298
       + x300  = 0
 c46:  x302 + x305 + x312 - x314 - x320 - x326 + x336 - x339 - x356 + x358
       + x360  = 0
 c47:  x362 + x365 + x372 - x374 - x380 - x386 + x396 - x399 - x416 + x418
       + x420  = 0
 c48:  x422 + x425 + x432 - x434 - x440 - x446 + x456 - x459 - x476 + x478
       + x480  = -1
 c49:  x482 + x485 + x492 - x494 - x500 - x506 + x516 - x519 - x536 + x538
       + x540  = 0
 c50:  x542 + x545 + x552 - x554 - x560 - x566 + x576 - x579 - x596 + x598
       + x600  = 0
 c51:  x15 + x26 + x43 + x45 + x48 - x50  = 0
 c52:  x75 + x86 + x103 + x105 + x108 - x110  = 0
 c53:  x135 + x146 + x163 + x165 + x168 - x170  = 0
 c54:  x195 + x206 + x223 + x225 + x228 - x230  = 0
 c55:  x255 + x266 + x283 + x285 + x288 - x290  = 0
 c56:  x315 + x326 + x343 + x345 + x348 - x350  = 0
 c57:  x375 + x386 + x403 + x405 + x408 - x410  = 0
 c58:  x435 + x446 + x463 + x465 + x468 - x470  = 0
 c59:  x495 + x506 + x523 + x525 + x528 - x530  = 0
 c60:  x555 + x566 + x583 + x585 + x588 - x590  = 0
 c61:  - x1 + x19 - x28 + x31 + x32 - x48 - x55 + x59  = 0
 c62:  - x61 + x79 - x88 + x91 + x92 - x108 - x115 + x119  = 0
 c63:  - x121 + x139 - x148 + x151 + x152 - x168 - x175 + x179  = 0
 c64:  - x181 + x199 - x208 + x211 + x212 - x228 - x235 + x239  = 0
 c65:  - x241 + x259 - x268 + x271 + x272 - x288 - x295 + x299  = 0
 c66:  - x301 + x319 - x328 + x331 + x332 - x348 - x355 + x359  = -1
 c67:  - x361 + x379 - x388 + x391 + x392 - x408 - x415 + x419  = 1
 c68:  - x421 + x439 - x448 + x451 + x452 - x468 - x475 + x479  = 0
 c69:  - x481 + x499 - x508 + x511 + x512 - x528 - x535 + x539  = 0
 c70:  - x541 + x559 - x568 + x571 + x572 - x588 - x595 + x599  = 0
 c71:  - x5 - x6 + x7 + x13 + x18 - x19 + x35 - x40 + x47 - x49 - x53  = 0
 c72:  - x65 - x66 + x67 + x73 + x78 - x79 + x95 - x100 + x107 - x109 - x113
        = 0
 c73:  - x125 - x126 + x127 + x133 + x138 - x139 + x155 - x160 + x167 - x169
       - x173  = 0
 c74:  - x185 - x186 + x187 + x193 + x198 - x199 + x215 - x220 + x227 - x229
       - x233  = 0
 c75:  - x245 - x246 + x247 + x253 + x258 - x259 + x275 - x280 + x287 - x289
       - x293  = 1
 c76:  - x305 - x306 + x307 + x313 + x318 - x319 + x335 - x340 + x347 - x349
       - x353  = 0
 c77:  - x365 - x366 + x367 + x373 + x378 - x379 + x395 - x400 + x407 - x409
       - x413  = -1
 c78:  - x425 - x426 + x427 + x433 + x438 - x439 + x455 - x460 + x467 - x469
       - x473  = 0
 c79:  - x485 - x486 + x487 + x493 + x498 - x499 + x515 - x520 + x527 - x529
       - x533  = -1
 c80:  - x545 - x546 + x547 + x553 + x558 - x559 + x575 - x580 + x587 - x589
       - x593  = 0
 c81:  x3 + x14 + x30 - x36 - x45 + x51  = 0
 c82:  x63 + x74 + x90 - x96 - x105 + x111  = 0
 c83:  x123 + x134 + x150 - x156 - x165 + x171  = 0
 c84:  x183 + x194 + x210 - x216 - x225 + x231  = 0
 c85:  x243 + x254 + x270 - x276 - x285 + x291  = 0
 c86:  x303 + x314 + x330 - x336 - x345 + x351  = 0
 c87:  x363 + x374 + x390 - x396 - x405 + x411  = 0
 c88:  x423 + x434 + x450 - x456 - x465 + x471  = 0
 c89:  x483 + x494 + x510 - x516 - x525 + x531  = 0
 c90:  x543 + x554 + x570 - x576 - x585 + x591  = 0
 c91:  - x10 - x12 - x27 - x34 - x42 + x49  = 0
 c92:  - x70 - x72 - x87 - x94 - x102 + x109  = 0
 c93:  - x130 - x132 - x147 - x154 - x162 + x169  = 0
 c94:  - x190 - x192 - x207 - x214 - x222 + x229  = 0
 c95:  - x250 - x252 - x267 - x274 - x282 + x289  = 0
 c96:  - x310 - x312 - x327 - x334 - x342 + x349  = 0
 c97:  - x370 - x372 - x387 - x394 - x402 + x409  = 0
 c98:  - x430 - x432 - x447 - x454 - x462 + x469  = 0
 c99:  - x490 - x492 - x507 - x514 - x522 + x529  = 0
 c100: - x550 - x552 - x567 - x574 - x582 + x589  = 0
 c101: - x8 - x16 + x17 - x18 + x22 + x25 + x27 + x29 - x37 - x43 + x53 - x57
        = 0
 c102: - x68 - x76 + x77 - x78 + x82 + x85 + x87 + x89 - x97 - x103 + x113
       - x117  = 0
 c103: - x128 - x136 + x137 - x138 + x142 + x145 + x147 + x149 - x157 - x163
       + x173 - x177  = 0
 c104: - x188 - x196 + x197 - x198 + x202 + x205 + x207 + x209 - x217 - x223
       + x233 - x237  = 0
 c105: - x248 - x256 + x257 - x258 + x262 + x265 + x267 + x269 - x277 - x283
       + x293 - x297  = -1
 c106: - x308 - x316 + x317 - x318 + x322 + x325 + x327 + x329 - x337 - x343
       + x353 - x357  = 0
 c107: - x368 - x376 + x377 - x378 + x382 + x385 + x387 + x389 - x397 - x403
       + x413 - x417  = 0
 c108: - x428 - x436 + x437 - x438 + x442 + x445 + x447 + x449 - x457 - x463
       + x473 - x477  = 0
 c109: - x488 - x496 + x497 - x498 + x502 + x505 + x507 + x509 - x517 - x523
       + x533 - x537  = 0
 c110: - x548 - x556 + x557 - x558 + x562 + x565 + x567 + x569 - x577 - x583
       + x593 - x597  = 0
 c111: x9 - x13 - x23 - x25 + x50 + x54 + x57 - x58  = 0
 c112: x69 - x73 - x83 - x85 + x110 + x114 + x117 - x118  = 0
 c113: x129 - x133 - x143 - x145 + x170 + x174 + x177 - x178  = 0
 c114: x189 - x193 - x203 - x205 + x230 + x234 + x237 - x238  = 0
 c115: x249 - x253 - x263 - x265 + x290 + x294 + x297 - x298  = 0
 c116: x309 - x313 - x323 - x325 + x350 + x354 + x357 - x358  = 0
 c117: x369 - x373 - x383 - x385 + x410 + x414 + x417 - x418  = 0
 c118: x429 - x433 - x443 - x445 + x470 + x474 + x477 - x478  = 0
 c119: x489 - x493 - x503 - x505 + x530 + x534 + x537 - x538  = 0
 c120: x549 - x553 - x563 - x565 + x590 + x594 + x597 - x598  = -1
 c121: - x2 + x11 + x16 - x17 + x23 + x24 - x32 - x35 - x54  = 1
 c122: - x62 + x71 + x76 - x77 + x83 + x84 - x92 - x95 - x114  = 1
 c123: - x122 + x131 + x136 - x137 + x143 + x144 - x152 - x155 - x174  = 1
 c124: - x182 + x191 + x196 - x197 + x203 + x204 - x212 - x215 - x234  = 0
 c125: - x242 + x251 + x256 - x257 + x263 + x264 - x272 - x275 - x294  = 0
 c126: - x302 + x311 + x316 - x317 + x323 + x324 - x332 - x335 - x354  = 0
 c127: - x362 + x371 + x376 - x377 + x383 + x384 - x392 - x395 - x414  = 0
 c128: - x422 + x431 + x436 - x437 + x443 + x444 - x452 - x455 - x474  = 0
 c129: - x482 + x491 + x496 - x497 + x503 + x504 - x512 - x515 - x534  = 0
 c130: - x542 + x551 + x556 - x557 + x563 + x564 - x572 - x575 - x594  = 0
 c131: - x3 + x6 + x34 + x38 - x44 - x47 + x55 - x59  = 0
 c132: - x63 + x66 + x94 + x98 - x104 - x107 + x115 - x119  = 0
 c133: - x123 + x126 + x154 + x158 - x164 - x167 + x175 - x179  = 0
 c134: - x183 + x186 + x214 + x218 - x224 - x227 + x235 - x239  = 0
 c135: - x243 + x246 + x274 + x278 - x284 - x287 + x295 - x299  = 0
 c136: - x303 + x306 + x334 + x338 - x344 - x347 + x355 - x359  = 0
 c137: - x363 + x366 + x394 + x398 - x404 - x407 + x415 - x419  = 0
 c138: - x423 + x426 + x454 + x458 - x464 - x467 + x475 - x479  = 0
 c139: - x483 + x486 + x514 + x518 - x524 - x527 + x535 - x539  = 0
 c140: - x543 + x546 + x574 + x578 - x584 - x587 + x595 - x599  = 0
 c141: - x4 - x7 + x10 - x11 - x15 + x21 + x28 - x29 + x37 + x41 - x46 + x52
        = 0
 c142: - x64 - x67 + x70 - x71 - x75 + x81 + x88 - x89 + x97 + x101 - x106
       + x112  = 0
 c143: - x124 - x127 + x130 - x131 - x135 + x141 + x148 - x149 + x157 + x161
       - x166 + x172  = 0
 c144: - x184 - x187 + x190 - x191 - x195 + x201 + x208 - x209 + x217 + x221
       - x226 + x232  = -1
 c145: - x244 - x247 + x250 - x251 - x255 + x261 + x268 - x269 + x277 + x281
       - x286 + x292  = 0
 c146: - x304 - x307 + x310 - x311 - x315 + x321 + x328 - x329 + x337 + x341
       - x346 + x352  = 1
 c147: - x364 - x367 + x370 - x371 - x375 + x381 + x388 - x389 + x397 + x401
       - x406 + x412  = 0
 c148: - x424 - x427 + x430 - x431 - x435 + x441 + x448 - x449 + x457 + x461
       - x466 + x472  = 0
 c149: - x484 - x487 + x490 - x491 - x495 + x501 + x508 - x509 + x517 + x521
       - x526 + x532  = 0
 c150: - x544 - x547 + x550 - x551 - x555 + x561 + x568 - x569 + x577 + x581
       - x586 + x592  = 0
 c151: 4 x1 + 4 x61 + 4 x121 + 4 x181 + 4 x241 + 4 x301 + 4 x361 + 4 x421
       + 4 x481 + 4 x541 - 5 x601 <= 0
 c152: 4 x2 + 4 x62 + 4 x122 + 4 x182 + 4 x242 + 4 x302 + 4 x362 + 4 x422
       + 4 x482 + 4 x542 - 5 x602 <= 0
 c153: 4 x3 + 4 x63 + 4 x123 + 4 x183 + 4 x243 + 4 x303 + 4 x363 + 4 x423
       + 4 x483 + 4 x543 - 5 x603 <= 0
 c154: 4 x4 + 4 x64 + 4 x124 + 4 x184 + 4 x244 + 4 x304 + 4 x364 + 4 x424
       + 4 x484 + 4 x544 - 5 x604 <= 0
 c155: 4 x5 + 4 x65 + 4 x125 + 4 x185 + 4 x245 + 4 x305 + 4 x365 + 4 x425
       + 4 x485 + 4 x545 - 5 x605 <= 0
 c156: 4 x6 + 4 x66 + 4 x126 + 4 x186 + 4 x246 + 4 x306 + 4 x366 + 4 x426
       + 4 x486 + 4 x546 - 5 x606 <= 0
 c157: 4 x7 + 4 x67 + 4 x127 + 4 x187 + 4 x247 + 4 x307 + 4 x367 + 4 x427
       + 4 x487 + 4 x547 - 5 x607 <= 0
 c158: 4 x8 + 4 x68 + 4 x128 + 4 x188 + 4 x248 + 4 x308 + 4 x368 + 4 x428
       + 4 x488 + 4 x548 - 5 x608 <= 0
 c159: 4 x9 + 4 x69 + 4 x129 + 4 x189 + 4 x249 + 4 x309 + 4 x369 + 4 x429
       + 4 x489 + 4 x549 - 5 x609 <= 0
 c160: 4 x10 + 4 x70 + 4 x130 + 4 x190 + 4 x250 + 4 x310 + 4 x370 + 4 x430
       + 4 x490 + 4 x550 - 5 x610 <= 0
 c161: 4 x11 + 4 x71 + 4 x131 + 4 x191 + 4 x251 + 4 x311 + 4 x371 + 4 x431
       + 4 x491 + 4 x551 - 5 x611 <= 0
 c162: 4 x12 + 4 x72 + 4 x132 + 4 x192 + 4 x252 + 4 x312 + 4 x372 + 4 x432
       + 4 x492 + 4 x552 - 5 x612 <= 0
 c163: 4 x13 + 4 x73 + 4 x133 + 4 x193 + 4 x253 + 4 x313 + 4 x373 + 4 x433
       + 4 x493 + 4 x553 - 5 x613 <= 0
 c164: 4 x14 + 4 x74 + 4 x134 + 4 x194 + 4 x254 + 4 x314 + 4 x374 + 4 x434
       + 4 x494 + 4 x554 - 5 x614 <= 0
 c165: 4 x15 + 4 x75 + 4 x135 + 4 x195 + 4 x255 + 4 x315 + 4 x375 + 4 x435
       + 4 x495 + 4 x555 - 5 x615 <= 0
 c166: 4 x16 + 4 x76 + 4 x136 + 4 x196 + 4 x256 + 4 x316 + 4 x376 + 4 x436
       + 4 x496 + 4 x556 - 5 x616 <= 0
 c167: 4 x17 + 4 x77 + 4 x137 + 4 x197 + 4 x257 + 4 x317 + 4 x377 + 4 x437
       + 4 x497 + 4 x557 - 5 x617 <= 0
 c168: 4 x18 + 4 x78 + 4 x138 + 4 x198 + 4 x258 + 4 x318 + 4 x378 + 4 x438
       + 4 x498 + 4 x558 - 5 x618 <= 0
 c169: 4 x19 + 4 x79 + 4 x139 + 4 x199 + 4 x259 + 4 x319 + 4 x379 + 4 x439
       + 4 x499 + 4 x559 - 5 x619 <= 0
 c170: 4 x20 + 4 x80 + 4 x140 + 4 x200 + 4 x260 + 4 x320 + 4 x380 + 4 x440
       + 4 x500 + 4 x560 - 5 x620 <= 0
 c171: 4 x21 + 4 x81 + 4 x141 + 4 x201 + 4 x261 + 4 x321 + 4 x381 + 4 x441
       + 4 x501 + 4 x561 - 5 x621 <= 0
 c172: 4 x22 + 4 x82 + 4 x142 + 4 x202 + 4 x262 + 4 x322 + 4 x382 + 4 x442
       + 4 x502 + 4 x562 - 5 x622 <= 0
 c173: 4 x23 + 4 x83 + 4 x143 + 4 x203 + 4 x263 + 4 x323 + 4 x383 + 4 x443
       + 4 x503 + 4 x563 - 5 x623 <= 0
 c174: 4 x24 + 4 x84 + 4 x144 + 4 x204 + 4 x264 + 4 x324 + 4 x384 + 4 x444
       + 4 x504 + 4 x564 - 5 x624 <= 0
 c175: 4 x25 + 4 x85 + 4 x145 + 4 x205 + 4 x265 + 4 x325 + 4 x385 + 4 x445
       + 4 x505 + 4 x565 - 5 x625 <= 0
 c176: 4 x26 + 4 x86 + 4 x146 + 4 x206 + 4 x266 + 4 x326 + 4 x386 + 4 x446
       + 4 x506 + 4 x566 - 5 x626 <= 0
 c177: 4 x27 + 4 x87 + 4 x147 + 4 x207 + 4 x267 + 4 x327 + 4 x387 + 4 x447
       + 4 x507 + 4 x567 - 5 x627 <= 0
 c178: 4 x28 + 4 x88 + 4 x148 + 4 x208 + 4 x268 + 4 x328 + 4 x388 + 4 x448
       + 4 x508 + 4 x568 - 5 x628 <= 0
 c179: 4 x29 + 4 x89 + 4 x149 + 4 x209 + 4 x269 + 4 x329 + 4 x389 + 4 x449
       + 4 x509 + 4 x569 - 5 x629 <= 0
 c180: 4 x30 + 4 x90 + 4 x150 + 4 x210 + 4 x270 + 4 x330 + 4 x390 + 4 x450
       + 4 x510 + 4 x570 - 5 x630 <= 0
 c181: 4 x31 + 4 x91 + 4 x151 + 4 x211 + 4 x271 + 4 x331 + 4 x391 + 4 x451
       + 4 x511 + 4 x571 - 5 x631 <= 0
 c182: 4 x32 + 4 x92 + 4 x152 + 4 x212 + 4 x272 + 4 x332 + 4 x392 + 4 x452
       + 4 x512 + 4 x572 - 5 x632 <= 0
 c183: 4 x33 + 4 x93 + 4 x153 + 4 x213 + 4 x273 + 4 x333 + 4 x393 + 4 x453
       + 4 x513 + 4 x573 - 5 x633 <= 0
 c184: 4 x34 + 4 x94 + 4 x154 + 4 x214 + 4 x274 + 4 x334 + 4 x394 + 4 x454
       + 4 x514 + 4 x574 - 5 x634 <= 0
 c185: 4 x35 + 4 x95 + 4 x155 + 4 x215 + 4 x275 + 4 x335 + 4 x395 + 4 x455
       + 4 x515 + 4 x575 - 5 x635 <= 0
 c186: 4 x36 + 4 x96 + 4 x156 + 4 x216 + 4 x276 + 4 x336 + 4 x396 + 4 x456
       + 4 x516 + 4 x576 - 5 x636 <= 0
 c187: 4 x37 + 4 x97 + 4 x157 + 4 x217 + 4 x277 + 4 x337 + 4 x397 + 4 x457
       + 4 x517 + 4 x577 - 5 x637 <= 0
 c188: 4 x38 + 4 x98 + 4 x158 + 4 x218 + 4 x278 + 4 x338 + 4 x398 + 4 x458
       + 4 x518 + 4 x578 - 5 x638 <= 0
 c189: 4 x39 + 4 x99 + 4 x159 + 4 x219 + 4 x279 + 4 x339 + 4 x399 + 4 x459
       + 4 x519 + 4 x579 - 5 x639 <= 0
 c190: 4 x40 + 4 x100 + 4 x160 + 4 x220 + 4 x280 + 4 x340 + 4 x400 + 4 x460
       + 4 x520 + 4 x580 - 5 x640 <= 0
 c191: 4 x41 + 4 x101 + 4 x161 + 4 x221 + 4 x281 + 4 x341 + 4 x401 + 4 x461
       + 4 x521 + 4 x581 - 5 x641 <= 0
 c192: 4 x42 + 4 x102 + 4 x162 + 4 x222 + 4 x282 + 4 x342 + 4 x402 + 4 x462
       + 4 x522 + 4 x582 - 5 x642 <= 0
 c193: 4 x43 + 4 x103 + 4 x163 + 4 x223 + 4 x283 + 4 x343 + 4 x403 + 4 x463
       + 4 x523 + 4 x583 - 5 x643 <= 0
 c194: 4 x44 + 4 x104 + 4 x164 + 4 x224 + 4 x284 + 4 x344 + 4 x404 + 4 x464
       + 4 x524 + 4 x584 - 5 x644 <= 0
 c195: 4 x45 + 4 x105 + 4 x165 + 4 x225 + 4 x285 + 4 x345 + 4 x405 + 4 x465
       + 4 x525 + 4 x585 - 5 x645 <= 0
 c196: 4 x46 + 4 x106 + 4 x166 + 4 x226 + 4 x286 + 4 x346 + 4 x406 + 4 x466
       + 4 x526 + 4 x586 - 5 x646 <= 0
 c197: 4 x47 + 4 x107 + 4 x167 + 4 x227 + 4 x287 + 4 x347 + 4 x407 + 4 x467
       + 4 x527 + 4 x587 - 5 x647 <= 0
 c198: 4 x48 + 4 x108 + 4 x168 + 4 x228 + 4 x288 + 4 x348 + 4 x408 + 4 x468
       + 4 x528 + 4 x588 - 5 x648 <= 0
 c199: 4 x49 + 4 x109 + 4 x169 + 4 x229 + 4 x289 + 4 x349 + 4 x409 + 4 x469
       + 4 x529 + 4 x589 - 5 x649 <= 0
 c200: 4 x50 + 4 x110 + 4 x170 + 4 x230 + 4 x290 + 4 x350 + 4 x410 + 4 x470
       + 4 x530 + 4 x590 - 5 x650 <= 0
 c201: 4 x51 + 4 x111 + 4 x171 + 4 x231 + 4 x291 + 4 x351 + 4 x411 + 4 x471
       + 4 x531 + 4 x591 - 5 x651 <= 0
 c202: 4 x52 + 4 x112 + 4 x172 + 4 x232 + 4 x292 + 4 x352 + 4 x412 + 4 x472
       + 4 x532 + 4 x592 - 5 x652 <= 0
 c203: 4 x53 + 4 x113 + 4 x173 + 4 x233 + 4 x293 + 4 x353 + 4 x413 + 4 x473
       + 4 x533 + 4 x593 - 5 x653 <= 0
 c204: 4 x54 + 4 x114 + 4 x174 + 4 x234 + 4 x294 + 4 x354 + 4 x414 + 4 x474
       + 4 x534 + 4 x594 - 5 x654 <= 0
 c205: 4 x55 + 4 x115 + 4 x175 + 4 x235 + 4 x295 + 4 x355 + 4 x415 + 4 x475
       + 4 x535 + 4 x595 - 5 x655 <= 0
 c206: 4 x56 + 4 x116 + 4 x176 + 4 x236 + 4 x296 + 4 x356 + 4 x416 + 4 x476
       + 4 x536 + 4 x596 - 5 x656 <= 0
 c207: 4 x57 + 4 x117 + 4 x177 + 4 x237 + 4 x297 + 4 x357 + 4 x417 + 4 x477
       + 4 x537 + 4 x597 - 5 x657 <= 0
 c208: 4 x58 + 4 x118 + 4 x178 + 4 x238 + 4 x298 + 4 x358 + 4 x418 + 4 x478
       + 4 x538 + 4 x598 - 5 x658 <= 0
 c209: 4 x59 + 4 x119 + 4 x179 + 4 x239 + 4 x299 + 4 x359 + 4 x419 + 4 x479
       + 4 x539 + 4 x599 - 5 x659 <= 0
 c210: 4 x60 + 4 x120 + 4 x180 + 4 x240 + 4 x300 + 4 x360 + 4 x420 + 4 x480
       + 4 x540 + 4 x600 - 5 x660 <= 0
Bounds
 0 <= x1 <= 1
 0 <= x2 <= 1
 0 <= x3 <= 1
 0 <= x4 <= 1
 0 <= x5 <= 1
 0 <= x6 <= 1
 0 <= x7 <= 1
 0 <= x8 <= 1
 0 <= x9 <= 1
 0 <= x10 <= 1
 0 <= x11 <= 1
 0 <= x12 <= 1
 0 <= x13 <= 1
 0 <= x14 <= 1
 0 <= x15 <= 1
 0 <= x16 <= 1
 0 <= x17 <= 1
 0 <= x18 <= 1
 0 <= x19 <= 1
 0 <= x20 <= 1
 0 <= x21 <= 1
 0 <= x22 <= 1
 0 <= x23 <= 1
 0 <= x24 <= 1
 0 <= x25 <= 1
 0 <= x26 <= 1
 0 <= x27 <= 1
 0 <= x28 <= 1
 0 <= x29 <= 1
 0 <= x30 <= 1
 0 <= x31 <= 1
 0 <= x32 <= 1
 0 <= x33 <= 1
 0 <= x34 <= 1
 0 <= x35 <= 1
 0 <= x36 <= 1
 0 <= x37 <= 1
 0 <= x38 <= 1
 0 <= x39 <= 1
 0 <= x40 <= 1
 0 <= x41 <= 1
 0 <= x42 <= 1
 0 <= x43 <= 1
 0 <= x44 <= 1
 0 <= x45 <= 1
 0 <= x46 <= 1
 0 <= x47 <= 1
 0 <= x48 <= 1
 0 <= x49 <= 1
 0 <= x50 <= 1
 0 <= x51 <= 1
 0 <= x52 <= 1
 0 <= x53 <= 1
 0 <= x54 <= 1
 0 <= x55 <= 1
 0 <= x56 <= 1
 0 <= x57 <= 1
 0 <= x58 <= 1
 0 <= x59 <= 1
 0 <= x60 <= 1
 0 <= x61 <= 1
 0 <= x62 <= 1
 0 <= x63 <= 1
 0 <= x64 <= 1
 0 <= x65 <= 1
 0 <= x66 <= 1
 0 <= x67 <= 1
 0 <= x68 <= 1
 0 <= x69 <= 1
 0 <= x70 <= 1
 0 <= x71 <= 1
 0 <= x72 <= 1
 0 <= x73 <= 1
 0 <= x74 <= 1
 0 <= x75 <= 1
 0 <= x76 <= 1
 0 <= x77 <= 1
 0 <= x78 <= 1
 0 <= x79 <= 1
 0 <= x80 <= 1
 0 <= x81 <= 1
 0 <= x82 <= 1
 0 <= x83 <= 1
 0 <= x84 <= 1
 0 <= x85 <= 1
 0 <= x86 <= 1
 0 <= x87 <= 1
 0 <= x88 <= 1
 0 <= x89 <= 1
 0 <= x90 <= 1
 0 <= x91 <= 1
 0 <= x92 <= 1
 0 <= x93 <= 1
 0 <= x94 <= 1
 0 <= x95 <= 1
 0 <= x96 <= 1
 0 <= x97 <= 1
 0 <= x98 <= 1
 0 <= x99 <= 1
 0 <= x100 <= 1
 0 <= x101 <= 1
 0 <= x102 <= 1
 0 <= x103 <= 1
 0 <= x104 <= 1
 0 <= x105 <= 1
 0 <= x106 <= 1
 0 <= x107 <= 1
 0 <= x108 <= 1
 0 <= x109 <= 1
 0 <= x110 <= 1
 0 <= x111 <= 1
 0 <= x112 <= 1
 0 <= x113 <= 1
 0 <= x114 <= 1
 0 <= x115 <= 1
 0 <= x116 <= 1
 0 <= x117 <= 1
 0 <= x118 <= 1
 0 <= x119 <= 1
 0 <= x120 <= 1
 0 <= x121 <= 1
 0 <= x122 <= 1
 0 <= x123 <= 1
 0 <= x124 <= 1
 0 <= x125 <= 1
 0 <= x126 <= 1
 0 <= x127 <= 1
 0 <= x128 <= 1
 0 <= x129 <= 1
 0 <= x130 <= 1
 0 <= x131 <= 1
 0 <= x132 <= 1
 0 <= x133 <= 1
 0 <= x134 <= 1
 0 <= x135 <= 1
 0 <= x136 <= 1
 0 <= x137 <= 1
 0 <= x138 <= 1
 0 <= x139 <= 1
 0 <= x140 <= 1
 0 <= x141 <= 1
 0 <= x142 <= 1
 0 <= x143 <= 1
 0 <= x144 <= 1
 0 <= x145 <= 1
 0 <= x146 <= 1
 0 <= x147 <= 1
 0 <= x148 <= 1
 0 <= x149 <= 1
 0 <= x150 <= 1
 0 <= x151 <= 1
 0 <= x152 <= 1
 0 <= x153 <= 1
 0 <= x154 <= 1
 0 <= x155 <= 1
 0 <= x156 <= 1
 0 <= x157 <= 1
 0 <= x158 <= 1
 0 <= x159 <= 1
 0 <= x160 <= 1
 0 <= x161 <= 1
 0 <= x162 <= 1
 0 <= x163 <= 1
 0 <= x164 <= 1
 0 <= x165 <= 1
 0 <= x166 <= 1
 0 <= x167 <= 1
 0 <= x168 <= 1
 0 <= x169 <= 1
 0 <= x170 <= 1
 0 <= x171 <= 1
 0 <= x172 <= 1
 0 <= x173 <= 1
 0 <= x174 <= 1
 0 <= x175 <= 1
 0 <= x176 <= 1
 0 <= x177 <= 1
 0 <= x178 <= 1
 0 <= x179 <= 1
 0 <= x180 <= 1
 0 <= x181 <= 1
 0 <= x182 <= 1
 0 <= x183 <= 1
 0 <= x184 <= 1
 0 <= x185 <= 1
 0 <= x186 <= 1
 0 <= x187 <= 1
 0 <= x188 <= 1
 0 <= x189 <= 1
 0 <= x190 <= 1
 0 <= x191 <= 1
 0 <= x192 <= 1
 0 <= x193 <= 1
 0 <= x194 <= 1
 0 <= x195 <= 1
 0 <= x196 <= 1
 0 <= x197 <= 1
 0 <= x198 <= 1
 0 <= x199 <= 1
 0 <= x200 <= 1
 0 <= x201 <= 1
 0 <= x202 <= 1
 0 <= x203 <= 1
 0 <= x204 <= 1
 0 <= x205 <= 1
 0 <= x206 <= 1
 0 <= x207 <= 1
 0 <= x208 <= 1
 0 <= x209 <= 1
 0 <= x210 <= 1
 0 <= x211 <= 1
 0 <= x212 <= 1
 0 <= x213 <= 1
 0 <= x214 <= 1
 0 <= x215 <= 1
 0 <= x216 <= 1
 0 <= x217 <= 1
 0 <= x218 <= 1
 0 <= x219 <= 1
 0 <= x220 <= 1
 0 <= x221 <= 1
 0 <= x222 <= 1
 0 <= x223 <= 1
 0 <= x224 <= 1
 0 <= x225 <= 1
 0 <= x226 <= 1
 0 <= x227 <= 1
 0 <= x228 <= 1
 0 <= x229 <= 1
 0 <= x230 <= 1
 0 <= x231 <= 1
 0 <= x232 <= 1
 0 <= x233 <= 1
 0 <= x234 <= 1
 0 <= x235 <= 1
 0 <= x236 <= 1
 0 <= x237 <= 1
 0 <= x238 <= 1
 0 <= x239 <= 1
 0 <= x240 <= 1
 0 <= x241 <= 1
 0 <= x242 <= 1
 0 <= x243 <= 1
 0 <= x244 <= 1
 0 <= x245 <= 1
 0 <= x246 <= 1
 0 <= x247 <= 1
 0 <= x248 <= 1
 0 <= x249 <= 1
 0 <= x250 <= 1
 0 <= x251 <= 1
 0 <= x252 <= 1
 0 <= x253 <= 1
 0 <= x254 <= 1
 0 <= x255 <= 1
 0 <= x256 <= 1
 0 <= x257 <= 1
 0 <= x258 <= 1
 0 <= x259 <= 1
 0 <= x260 <= 1
 0 <= x261 <= 1
 0 <= x262 <= 1
 0 <= x263 <= 1
 0 <= x264 <= 1
 0 <= x265 <= 1
 0 <= x266 <= 1
 0 <= x267 <= 1
 0 <= x268 <= 1
 0 <= x269 <= 1
 0 <= x270 <= 1
 0 <= x271 <= 1
 0 <= x272 <= 1
 0 <= x273 <= 1
 0 <= x274 <= 1
 0 <= x275 <= 1
 0 <= x276 <= 1
 0 <= x277 <= 1
 0 <= x278 <= 1
 0 <= x279 <= 1
 0 <= x280 <= 1
 0 <= x281 <= 1
 0 <= x282 <= 1
 0 <= x283 <= 1
 0 <= x284 <= 1
 0 <= x285 <= 1
 0 <= x286 <= 1
 0 <= x287 <= 1
 0 <= x288 <= 1
 0 <= x289 <= 1
 0 <= x290 <= 1
 0 <= x291 <= 1
 0 <= x292 <= 1
 0 <= x293 <= 1
 0 <= x294 <= 1
 0 <= x295 <= 1
 0 <= x296 <= 1
 0 <= x297 <= 1
 0 <= x298 <= 1
 0 <= x299 <= 1
 0 <= x300 <= 1
 0 <= x301 <= 1
 0 <= x302 <= 1
 0 <= x303 <= 1
 0 <= x304 <= 1
 0 <= x305 <= 1
 0 <= x306 <= 1
 0 <= x307 <= 1
 0 <= x308 <= 1
 0 <= x309 <= 1
 0 <= x310 <= 1
 0 <= x311 <= 1
 0 <= x312 <= 1
 0 <= x313 <= 1
 0 <= x314 <= 1
 0 <= x315 <= 1
 0 <= x316 <= 1
 0 <= x317 <= 1
 0 <= x318 <= 1
 0 <= x319 <= 1
 0 <= x320 <= 1
 0 <= x321 <= 1
 0 <= x322 <= 1
 0 <= x323 <= 1
 0 <= x324 <= 1
 0 <= x325 <= 1
 0 <= x326 <= 1
 0 <= x327 <= 1
 0 <= x328 <= 1
 0 <= x329 <= 1
 0 <= x330 <= 1
 0 <= x331 <= 1
 0 <= x332 <= 1
 0 <= x333 <= 1
 0 <= x334 <= 1
 0 <= x335 <= 1
 0 <= x336 <= 1
 0 <= x337 <= 1
 0 <= x338 <= 1
 0 <= x339 <= 1
 0 <= x340 <= 1
 0 <= x341 <= 1
 0 <= x342 <= 1
 0 <= x343 <= 1
 0 <= x344 <= 1
 0 <= x345 <= 1
 0 <= x346 <= 1
 0 <= x347 <= 1
 0 <= x348 <= 1
 0 <= x349 <= 1
 0 <= x350 <= 1
 0 <= x351 <= 1
 0 <= x352 <= 1
 0 <= x353 <= 1
 0 <= x354 <= 1
 0 <= x355 <= 1
 0 <= x356 <= 1
 0 <= x357 <= 1
 0 <= x358 <= 1
 0 <= x359 <= 1
 0 <= x360 <= 1
 0 <= x361 <= 1
 0 <= x362 <= 1
 0 <= x363 <= 1
 0 <= x364 <= 1
 0 <= x365 <= 1
 0 <= x366 <= 1
 0 <= x367 <= 1
 0 <= x368 <= 1
 0 <= x369 <= 1
 0 <= x370 <= 1
 0 <= x371 <= 1
 0 <= x372 <= 1
 0 <= x373 <= 1
 0 <= x374 <= 1
 0 <= x375 <= 1
 0 <= x376 <= 1
 0 <= x377 <= 1
 0 <= x378 <= 1
 0 <= x379 <= 1
 0 <= x380 <= 1
 0 <= x381 <= 1
 0 <= x382 <= 1
 0 <= x383 <= 1
 0 <= x384 <= 1
 0 <= x385 <= 1
 0 <= x386 <= 1
 0 <= x387 <= 1
 0 <= x388 <= 1
 0 <= x389 <= 1
 0 <= x390 <= 1
 0 <= x391 <= 1
 0 <= x392 <= 1
 0 <= x393 <= 1
 0 <= x394 <= 1
 0 <= x395 <= 1
 0 <= x396 <= 1
 0 <= x397 <= 1
 0 <= x398 <= 1
 0 <= x399 <= 1
 0 <= x400 <= 1
 0 <= x401 <= 1
 0 <= x402 <= 1
 0 <= x403 <= 1
 0 <= x404 <= 1
 0 <= x405 <= 1
 0 <= x406 <= 1
 0 <= x407 <= 1
 0 <= x408 <= 1
 0 <= x409 <= 1
 0 <= x410 <= 1
 0 <= x411 <= 1
 0 <= x412 <= 1
 0 <= x413 <= 1
 0 <= x414 <= 1
 0 <= x415 <= 1
 0 <= x416 <= 1
 0 <= x417 <= 1
 0 <= x418 <= 1
 0 <= x419 <= 1
 0 <= x420 <= 1
 0 <= x421 <= 1
 0 <= x422 <= 1
 0 <= x423 <= 1
 0 <= x424 <= 1
 0 <= x425 <= 1
 0 <= x426 <= 1
 0 <= x427 <= 1
 0 <= x428 <= 1
 0 <= x429 <= 1
 0 <= x430 <= 1
 0 <= x431 <= 1
 0 <= x432 <= 1
 0 <= x433 <= 1
 0 <= x434 <= 1
 0 <= x435 <= 1
 0 <= x436 <= 1
 0 <= x437 <= 1
 0 <= x438 <= 1
 0 <= x439 <= 1
 0 <= x440 <= 1
 0 <= x441 <= 1
 0 <= x442 <= 1
 0 <= x443 <= 1
 0 <= x444 <= 1
 0 <= x445 <= 1
 0 <= x446 <= 1
 0 <= x447 <= 1
 0 <= x448 <= 1
 0 <= x449 <= 1
 0 <= x450 <= 1
 0 <= x451 <= 1
 0 <= x452 <= 1
 0 <= x453 <= 1
 0 <= x454 <= 1
 0 <= x455 <= 1
 0 <= x456 <= 1
 0 <= x457 <= 1
 0 <= x458 <= 1
 0 <= x459 <= 1
 0 <= x460 <= 1
 0 <= x461 <= 1
 0 <= x462 <= 1
 0 <= x463 <= 1
 0 <= x464 <= 1
 0 <= x465 <= 1
 0 <= x466 <= 1
 0 <= x467 <= 1
 0 <= x468 <= 1
 0 <= x469 <= 1
 0 <= x470 <= 1
 0 <= x471 <= 1
 0 <= x472 <= 1
 0 <= x473 <= 1
 0 <= x474 <= 1
 0 <= x475 <= 1
 0 <= x476 <= 1
 0 <= x477 <= 1
 0 <= x478 <= 1
 0 <= x479 <= 1
 0 <= x480 <= 1
 0 <= x481 <= 1
 0 <= x482 <= 1
 0 <= x483 <= 1
 0 <= x484 <= 1
 0 <= x485 <= 1
 0 <= x486 <= 1
 0 <= x487 <= 1
 0 <= x488 <= 1
 0 <= x489 <= 1
 0 <= x490 <= 1
 0 <= x491 <= 1
 0 <= x492 <= 1
 0 <= x493 <= 1
 0 <= x494 <= 1
 0 <= x495 <= 1
 0 <= x496 <= 1
 0 <= x497 <= 1
 0 <= x498 <= 1
 0 <= x499 <= 1
 0 <= x500 <= 1
 0 <= x501 <= 1
 0 <= x502 <= 1
 0 <= x503 <= 1
 0 <= x504 <= 1
 0 <= x505 <= 1
 0 <= x506 <= 1
 0 <= x507 <= 1
 0 <= x508 <= 1
 0 <= x509 <= 1
 0 <= x510 <= 1
 0 <= x511 <= 1
 0 <= x512 <= 1
 0 <= x513 <= 1
 0 <= x514 <= 1
 0 <= x515 <= 1
 0 <= x516 <= 1
 0 <= x517 <= 1
 0 <= x518 <= 1
 0 <= x519 <= 1
 0 <= x520 <= 1
 0 <= x521 <= 1
 0 <= x522 <= 1
 0 <= x523 <= 1
 0 <= x524 <= 1
 0 <= x525 <= 1
 0 <= x526 <= 1
 0 <= x527 <= 1
 0 <= x528 <= 1
 0 <= x529 <= 1
 0 <= x530 <= 1
 0 <= x531 <= 1
 0 <= x532 <= 1
 0 <= x533 <= 1
 0 <= x534 <= 1
 0 <= x535 <= 1
 0 <= x536 <= 1
 0 <= x537 <= 1
 0 <= x538 <= 1
 0 <= x539 <= 1
 0 <= x540 <= 1
 0 <= x541 <= 1
 0 <= x542 <= 1
 0 <= x543 <= 1
 0 <= x544 <= 1
 0 <= x545 <= 1
 0 <= x546 <= 1
 0 <= x547 <= 1
 0 <= x548 <= 1
 0 <= x549 <= 1
 0 <= x550 <= 1
 0 <= x551 <= 1
 0 <= x552 <= 1
 0 <= x553 <= 1
 0 <= x554 <= 1
 0 <= x555 <= 1
 0 <= x556 <= 1
 0 <= x557 <= 1
 0 <= x558 <= 1
 0 <= x559 <= 1
 0 <= x560 <= 1
 0 <= x561 <= 1
 0 <= x562 <= 1
 0 <= x563 <= 1
 0 <= x564 <= 1
 0 <= x565 <= 1
 0 <= x566 <= 1
 0 <= x567 <= 1
 0 <= x568 <= 1
 0 <= x569 <= 1
 0 <= x570 <= 1
 0 <= x571 <= 1
 0 <= x572 <= 1
 0 <= x573 <= 1
 0 <= x574 <= 1
 0 <= x575 <= 1
 0 <= x576 <= 1
 0 <= x577 <= 1
 0 <= x578 <= 1
 0 <= x579 <= 1
 0 <= x580 <= 1
 0 <= x581 <= 1
 0 <= x582 <= 1
 0 <= x583 <= 1
 0 <= x584 <= 1
 0 <= x585 <= 1
 0 <= x586 <= 1
 0 <= x587 <= 1
 0 <= x588 <= 1
 0 <= x589 <= 1
 0 <= x590 <= 1
 0 <= x591 <= 1
 0 <= x592 <= 1
 0 <= x593 <= 1
 0 <= x594 <= 1
 0 <= x595 <= 1
 0 <= x596 <= 1
 0 <= x597 <= 1
 0 <= x598 <= 1
 0 <= x599 <= 1
 0 <= x600 <= 1
 0 <= x601 <= 1
 0 <= x602 <= 1
 0 <= x603 <= 1
 0 <= x604 <= 1
 0 <= x605 <= 1
 0 <= x606 <= 1
 0 <= x607 <= 1
 0 <= x608 <= 1
 0 <= x609 <= 1
 0 <= x610 <= 1
 0 <= x611 <= 1
 0 <= x612 <= 1
 0 <= x613 <= 1
 0 <= x614 <= 1
 0 <= x615 <= 1
 0 <= x616 <= 1
 0 <= x617 <= 1
 0 <= x618 <= 1
 0 <= x619 <= 1
 0 <= x620 <= 1
 0 <= x621 <= 1
 0 <= x622 <= 1
 0 <= x623 <= 1
 0 <= x624 <= 1
 0 <= x625 <= 1
 0 <= x626 <= 1
 0 <= x627 <= 1
 0 <= x628 <= 1
 0 <= x629 <= 1
 0 <= x630 <= 1
 0 <= x631 <= 1
 0 <= x632 <= 1
 0 <= x633 <= 1
 0 <= x634 <= 1
 0 <= x635 <= 1
 0 <= x636 <= 1
 0 <= x637 <= 1
 0 <= x638 <= 1
 0 <= x639 <= 1
 0 <= x640 <= 1
 0 <= x641 <= 1
 0 <= x642 <= 1
 0 <= x643 <= 1
 0 <= x644 <= 1
 0 <= x645 <= 1
 0 <= x646 <= 1
 0 <= x647 <= 1
 0 <= x648 <= 1
 0 <= x649 <= 1
 0 <= x650 <= 1
 0 <= x651 <= 1
 0 <= x652 <= 1
 0 <= x653 <= 1
 0 <= x654 <= 1
 0 <= x655 <= 1
 0 <= x656 <= 1
 0 <= x657 <= 1
 0 <= x658 <= 1
 0 <= x659 <= 1
 0 <= x660 <= 1
Binaries
 x601  x602  x603  x604  x605  x606  x607  x608  x609  x610  x611  x612  x613 
 x614  x615  x616  x617  x618  x619  x620  x621  x622  x623  x624  x625  x626 
 x627  x628  x629  x630  x631  x632  x633  x634  x635  x636  x637  x638  x639 
 x640  x641  x642  x643  x644  x645  x646  x647  x648  x649  x650  x651  x652 
 x653  x654  x655  x656  x657  x658  x659  x660 
End
